outputs/case_340.model.txt
net_worth = 1
financial_or_business_improvement_plan_completed = False
merger_completed = True
net_worth_ratio_prev1 = 1/100
capital_increase_completed = False
own_capital = 2/5
net_worth_ratio_prev2 = 1/100
risk_capital = 1
capital_level = 4
penalty = False
/0 = [else -> 2/5]